h = 13;
w = 13;
n_pieces = 9;
n_shapes = 16;
shape = [{1}, {2}, {3}, {4}, {5}, {6}, {7}, {8}, {9}, {10}, {11}, {12}, {13}, {14}, {15}, {16}];
shape_index = [{1}, {2, 3}, {4, 5}, {6, 7}, {8, 9}, {10, 11}, {12, 13}, {14}, {15, 16}];
rect_rep = [1, 1, 1, 1, 1, 1, 1, 1, 1];
rect_copies = 9;
coordinate_shapes = [0, 1, 2, 3, 4, 5, 6, 7, 8];
rect_size = [|3, 3
|3, 4
|4, 3
|3, 5
|5, 3
|3, 6
|6, 3
|3, 7
|7, 3
|3, 8
|8, 3
|4, 3
|3, 4
|4, 4
|7, 6
|6, 7
|];
rect_offset = [|0, 0
|0, 0
|0, 0
|0, 0
|0, 0
|0, 0
|0, 0
|0, 0
|0, 0
|0, 0
|0, 0
|0, 0
|0, 0
|0, 0
|0, 0
|0, 0
|];
rectangles = [|3, 3
|3, 4
|3, 5
|3, 6
|3, 7
|3, 8
|4, 3
|4, 4
|7, 6
|];
